p edge 479 449
e 1 2
e 1 3
e 1 4
e 1 5
e 1 6
e 1 7
e 1 8
e 1 9
e 1 10
e 1 11
e 1 12
e 1 13
e 1 14
e 1 15
e 1 16
e 1 17
e 18 19
e 18 20
e 18 21
e 18 22
e 18 23
e 18 24
e 18 25
e 18 26
e 18 27
e 18 28
e 18 29
e 18 30
e 18 31
e 18 32
e 18 33
e 18 34
e 18 35
e 18 36
e 37 38
e 37 39
e 37 40
e 37 41
e 37 42
e 37 43
e 37 44
e 37 45
e 37 46
e 37 47
e 37 48
e 37 49
e 50 51
e 50 52
e 50 53
e 50 54
e 50 55
e 50 56
e 50 57
e 50 58
e 50 59
e 50 60
e 50 61
e 50 62
e 63 64
e 63 65
e 63 66
e 63 67
e 63 68
e 63 69
e 63 70
e 63 71
e 63 72
e 63 73
e 63 74
e 63 75
e 63 76
e 63 77
e 63 78
e 63 79
e 63 80
e 63 81
e 82 83
e 82 84
e 82 85
e 82 86
e 82 87
e 82 88
e 82 89
e 82 90
e 82 91
e 82 92
e 82 93
e 82 94
e 82 95
e 82 96
e 82 97
e 82 98
e 82 99
e 82 100
e 82 101
e 102 103
e 102 104
e 102 105
e 102 106
e 102 107
e 102 108
e 102 109
e 102 110
e 102 111
e 102 112
e 102 113
e 102 114
e 115 116
e 115 117
e 115 118
e 115 119
e 115 120
e 115 121
e 115 122
e 115 123
e 115 124
e 115 125
e 126 127
e 126 128
e 126 129
e 126 130
e 126 131
e 126 132
e 126 133
e 126 134
e 126 135
e 126 136
e 126 137
e 126 138
e 126 139
e 126 140
e 126 141
e 126 142
e 126 143
e 126 144
e 126 145
e 126 146
e 147 148
e 147 149
e 147 150
e 147 151
e 147 152
e 147 153
e 147 154
e 147 155
e 147 156
e 147 157
e 147 158
e 147 159
e 147 160
e 161 162
e 161 163
e 161 164
e 161 165
e 161 166
e 161 167
e 161 168
e 161 169
e 161 170
e 161 171
e 161 172
e 161 173
e 161 174
e 161 175
e 161 176
e 161 177
e 161 178
e 161 179
e 180 181
e 180 182
e 180 183
e 180 184
e 180 185
e 180 186
e 180 187
e 180 188
e 180 189
e 180 190
e 191 192
e 191 193
e 191 194
e 191 195
e 191 196
e 191 197
e 191 198
e 191 199
e 191 200
e 191 201
e 191 202
e 191 203
e 191 204
e 191 205
e 191 206
e 207 208
e 207 209
e 207 210
e 207 211
e 207 212
e 207 213
e 207 214
e 207 215
e 207 216
e 207 217
e 207 218
e 207 219
e 207 220
e 207 221
e 207 222
e 207 223
e 207 224
e 225 226
e 225 227
e 225 228
e 225 229
e 225 230
e 225 231
e 225 232
e 225 233
e 225 234
e 225 235
e 225 236
e 225 237
e 225 238
e 239 240
e 239 241
e 239 242
e 239 243
e 239 244
e 239 245
e 239 246
e 239 247
e 239 248
e 239 249
e 239 250
e 239 251
e 252 253
e 252 254
e 252 255
e 252 256
e 252 257
e 252 258
e 252 259
e 252 260
e 252 261
e 252 262
e 252 263
e 252 264
e 252 265
e 266 267
e 266 268
e 266 269
e 266 270
e 266 271
e 266 272
e 266 273
e 266 274
e 266 275
e 266 276
e 266 277
e 266 278
e 266 279
e 266 280
e 266 281
e 282 283
e 282 284
e 282 285
e 282 286
e 282 287
e 282 288
e 282 289
e 282 290
e 282 291
e 282 292
e 282 293
e 282 294
e 282 295
e 282 296
e 297 298
e 297 299
e 297 300
e 297 301
e 297 302
e 297 303
e 297 304
e 297 305
e 297 306
e 297 307
e 297 308
e 297 309
e 297 310
e 297 311
e 297 312
e 297 313
e 297 314
e 315 316
e 315 317
e 315 318
e 315 319
e 315 320
e 315 321
e 315 322
e 315 323
e 315 324
e 315 325
e 315 326
e 315 327
e 328 329
e 328 330
e 328 331
e 328 332
e 328 333
e 328 334
e 328 335
e 328 336
e 328 337
e 328 338
e 328 339
e 328 340
e 328 341
e 328 342
e 328 343
e 328 344
e 328 345
e 328 346
e 347 348
e 347 349
e 347 350
e 347 351
e 347 352
e 347 353
e 347 354
e 347 355
e 347 356
e 347 357
e 347 358
e 347 359
e 347 360
e 347 361
e 347 362
e 347 363
e 347 364
e 347 365
e 347 366
e 347 367
e 368 369
e 368 370
e 368 371
e 368 372
e 368 373
e 368 374
e 368 375
e 368 376
e 368 377
e 368 378
e 368 379
e 368 380
e 368 381
e 368 382
e 368 383
e 368 384
e 368 385
e 386 387
e 386 388
e 386 389
e 386 390
e 386 391
e 386 392
e 386 393
e 386 394
e 386 395
e 386 396
e 386 397
e 386 398
e 386 399
e 386 400
e 386 401
e 386 402
e 403 404
e 403 405
e 403 406
e 403 407
e 403 408
e 403 409
e 403 410
e 403 411
e 403 412
e 403 413
e 403 414
e 403 415
e 403 416
e 403 417
e 403 418
e 403 419
e 420 421
e 420 422
e 420 423
e 420 424
e 420 425
e 420 426
e 420 427
e 420 428
e 420 429
e 420 430
e 420 431
e 420 432
e 433 434
e 433 435
e 433 436
e 433 437
e 433 438
e 433 439
e 433 440
e 433 441
e 433 442
e 433 443
e 433 444
e 433 445
e 433 446
e 433 447
e 433 448
e 433 449
e 450 451
e 450 452
e 450 453
e 450 454
e 450 455
e 450 456
e 450 457
e 450 458
e 450 459
e 450 460
e 461 462
e 461 463
e 461 464
e 461 465
e 461 466
e 461 467
e 461 468
e 461 469
e 461 470
e 461 471
e 461 472
e 461 473
e 461 474
e 461 475
e 461 476
e 461 477
e 461 478
e 461 479
